NAME: tsp25_6
COMMENT: 25-tsp problem (Padberg/Rinaldi)
TYPE: TSP
DIMENSION: 25
EDGE_WEIGHT_TYPE : EUC_2D
NODE_COORD_SECTION
1 18 20
2 34 25
3 30 40
4 32 6
5 36 34
6 10 27
7 23 16
8 26 19
9 36 8
10 12 19
11 12 29
12 22 18
13 18 2
14 25 26
15 17 24
16 9 23
17 1 8
18 11 20
19 23 19
20 9 1
21 22 30
22 30 3
23 10 22
24 3 26
25 39 39
